Timesteps: 1
s UNSATISFIABLE
real 0.10
user 0.00
sys 0.00
Timesteps: 2
s UNSATISFIABLE
real 0.09
user 0.01
sys 0.00
Timesteps: 3
s UNSATISFIABLE
real 0.07
user 0.02
sys 0.00
Timesteps: 4
s UNSATISFIABLE
real 0.17
user 0.04
sys 0.00
Timesteps: 5
s UNSATISFIABLE
real 0.11
user 0.05
sys 0.00
Timesteps: 6
s UNSATISFIABLE
real 0.18
user 0.12
sys 0.00
Timesteps: 7
s UNSATISFIABLE
real 0.35
user 0.28
sys 0.00
Timesteps: 8
s UNSATISFIABLE
real 0.29
user 0.20
sys 0.00
Timesteps: 9
s UNSATISFIABLE
real 0.51
user 0.40
sys 0.01
Timesteps: 10
s UNSATISFIABLE
real 0.77
user 0.67
sys 0.01
Timesteps: 11
s UNSATISFIABLE
real 0.97
user 0.85
sys 0.01
Timesteps: 12
s UNSATISFIABLE
real 1.53
user 1.40
sys 0.01
Timesteps: 13
s UNSATISFIABLE
real 3.42
user 3.27
sys 0.01
Timesteps: 14
s UNSATISFIABLE
real 3.17
user 3.02
sys 0.01
Timesteps: 15
s UNSATISFIABLE
real 4.26
user 4.09
sys 0.01
Timesteps: 16
s UNSATISFIABLE
real 5.61
user 5.42
sys 0.02
Timesteps: 17
s UNSATISFIABLE
real 7.43
user 7.18
sys 0.03
Timesteps: 18
s UNSATISFIABLE
real 8.14
user 7.92
sys 0.02
Timesteps: 19
s UNSATISFIABLE
real 8.29
user 8.05
sys 0.03
Timesteps: 20
s UNSATISFIABLE
real 8.93
user 8.67
sys 0.04
Timesteps: 21
s UNSATISFIABLE
real 9.11
user 8.84
sys 0.04
Timesteps: 22
s UNSATISFIABLE
real 10.64
user 10.35
sys 0.04
Timesteps: 23
s UNSATISFIABLE
real 13.88
user 13.57
sys 0.05
Timesteps: 24
s UNSATISFIABLE
real 13.88
user 13.56
sys 0.04
Timesteps: 25
s UNSATISFIABLE
real 14.25
user 13.74
sys 0.07
Timesteps: 26
s UNSATISFIABLE
real 20.02
user 19.65
sys 0.06
Timesteps: 27
s UNSATISFIABLE
real 26.76
user 26.33
sys 0.07
Timesteps: 28
s UNSATISFIABLE
real 34.36
user 33.90
sys 0.08
Timesteps: 29
s UNSATISFIABLE
real 34.05
user 33.58
sys 0.08
Timesteps: 30
s UNSATISFIABLE
real 43.19
user 42.64
sys 0.10
Timesteps: 31
s UNSATISFIABLE
real 45.53
user 44.98
sys 0.10
Timesteps: 32
s UNSATISFIABLE
real 76.79
user 76.07
sys 0.13
Timesteps: 33
s UNSATISFIABLE
real 102.73
user 101.83
sys 0.17
Timesteps: 34
s UNSATISFIABLE
real 139.79
user 138.65
sys 0.25
Timesteps: 35
s UNSATISFIABLE
real 256.01
user 253.62
sys 0.37
Timesteps: 36
s UNSATISFIABLE
real 233.23
user 231.19
sys 0.33
Timesteps: 37
s UNSATISFIABLE
real 335.26
user 333.10
sys 0.49
Timesteps: 38
s UNSATISFIABLE
real 329.08
user 327.03
sys 0.45
Timesteps: 39
s UNSATISFIABLE
real 833.58
user 827.81
sys 0.93
Timesteps: 40
